c " random instance " 
p edges 200 2193
e 1 31
e 1 34
e 1 39
e 1 46
e 1 48
e 1 50
e 1 54
e 1 66
e 1 92
e 1 116
e 1 122
e 1 133
e 1 139
e 1 157
e 1 160
e 1 162
e 1 194
e 2 10
e 2 16
e 2 23
e 2 29
e 2 31
e 2 33
e 2 36
e 2 52
e 2 58
e 2 59
e 2 63
e 2 65
e 2 68
e 2 98
e 2 108
e 2 112
e 2 117
e 2 122
e 2 129
e 2 143
e 2 145
e 2 149
e 2 150
e 2 159
e 2 164
e 2 173
e 2 179
e 2 181
e 2 184
e 2 185
e 2 186
e 2 199
e 3 9
e 3 15
e 3 21
e 3 73
e 3 78
e 3 83
e 3 100
e 3 106
e 3 114
e 3 122
e 3 136
e 3 140
e 3 146
e 3 154
e 3 170
e 3 171
e 3 174
e 3 182
e 3 187
e 4 26
e 4 41
e 4 46
e 4 47
e 4 51
e 4 56
e 4 60
e 4 62
e 4 67
e 4 74
e 4 80
e 4 92
e 4 103
e 4 109
e 4 114
e 4 125
e 4 130
e 4 136
e 4 138
e 4 158
e 4 165
e 4 178
e 4 197
e 5 12
e 5 17
e 5 19
e 5 20
e 5 36
e 5 39
e 5 48
e 5 90
e 5 94
e 5 100
e 5 103
e 5 107
e 5 134
e 5 139
e 5 141
e 5 143
e 5 159
e 5 160
e 5 183
e 5 192
e 6 14
e 6 23
e 6 32
e 6 33
e 6 48
e 6 51
e 6 55
e 6 60
e 6 66
e 6 67
e 6 81
e 6 98
e 6 102
e 6 109
e 6 110
e 6 112
e 6 121
e 6 125
e 6 135
e 6 142
e 6 144
e 6 160
e 7 18
e 7 20
e 7 30
e 7 35
e 7 42
e 7 73
e 7 78
e 7 83
e 7 92
e 7 96
e 7 98
e 7 101
e 7 130
e 7 143
e 7 152
e 7 155
e 7 158
e 7 163
e 7 195
e 7 198
e 8 27
e 8 34
e 8 43
e 8 64
e 8 83
e 8 96
e 8 118
e 8 135
e 8 156
e 8 164
e 8 174
e 8 175
e 8 189
e 9 13
e 9 16
e 9 28
e 9 34
e 9 36
e 9 37
e 9 63
e 9 67
e 9 77
e 9 91
e 9 97
e 9 101
e 9 106
e 9 113
e 9 118
e 9 121
e 9 130
e 9 161
e 9 169
e 9 195
e 9 196
e 10 12
e 10 23
e 10 35
e 10 37
e 10 51
e 10 55
e 10 57
e 10 65
e 10 75
e 10 78
e 10 81
e 10 82
e 10 83
e 10 85
e 10 89
e 10 94
e 10 95
e 10 100
e 10 104
e 10 105
e 10 118
e 10 121
e 10 126
e 10 134
e 10 138
e 10 143
e 10 153
e 10 158
e 10 164
e 10 168
e 10 177
e 10 182
e 10 190
e 11 23
e 11 25
e 11 34
e 11 39
e 11 50
e 11 70
e 11 71
e 11 73
e 11 107
e 11 109
e 11 110
e 11 130
e 11 131
e 11 137
e 11 142
e 11 150
e 11 169
e 11 173
e 11 176
e 11 183
e 11 187
e 12 13
e 12 22
e 12 24
e 12 34
e 12 48
e 12 49
e 12 50
e 12 64
e 12 66
e 12 68
e 12 84
e 12 89
e 12 97
e 12 112
e 12 113
e 12 120
e 12 139
e 12 142
e 12 151
e 12 166
e 12 167
e 12 172
e 12 197
e 13 14
e 13 20
e 13 25
e 13 30
e 13 33
e 13 36
e 13 55
e 13 60
e 13 65
e 13 74
e 13 83
e 13 84
e 13 85
e 13 93
e 13 109
e 13 111
e 13 117
e 13 125
e 13 143
e 13 162
e 13 168
e 13 185
e 14 16
e 14 17
e 14 18
e 14 19
e 14 21
e 14 23
e 14 31
e 14 59
e 14 61
e 14 68
e 14 78
e 14 86
e 14 99
e 14 110
e 14 124
e 14 147
e 14 148
e 14 149
e 14 160
e 14 166
e 14 173
e 14 200
e 15 47
e 15 53
e 15 55
e 15 56
e 15 73
e 15 81
e 15 101
e 15 102
e 15 115
e 15 129
e 15 134
e 15 135
e 15 170
e 15 176
e 15 178
e 15 182
e 15 184
e 15 190
e 15 196
e 16 22
e 16 38
e 16 41
e 16 68
e 16 85
e 16 111
e 16 129
e 16 140
e 16 155
e 16 166
e 16 170
e 16 174
e 16 181
e 16 185
e 16 197
e 17 41
e 17 42
e 17 43
e 17 58
e 17 67
e 17 93
e 17 99
e 17 100
e 17 113
e 17 115
e 17 123
e 17 130
e 17 142
e 17 146
e 17 156
e 17 187
e 17 197
e 18 25
e 18 58
e 18 68
e 18 74
e 18 95
e 18 101
e 18 104
e 18 110
e 18 113
e 18 149
e 18 172
e 18 175
e 18 176
e 18 194
e 19 31
e 19 33
e 19 42
e 19 63
e 19 82
e 19 83
e 19 84
e 19 93
e 19 103
e 19 116
e 19 120
e 19 153
e 19 158
e 19 169
e 19 178
e 19 180
e 19 185
e 20 23
e 20 31
e 20 39
e 20 50
e 20 51
e 20 75
e 20 99
e 20 117
e 20 133
e 20 138
e 20 143
e 20 145
e 20 156
e 20 160
e 20 163
e 20 166
e 20 167
e 20 171
e 20 173
e 20 191
e 21 26
e 21 28
e 21 40
e 21 50
e 21 58
e 21 59
e 21 76
e 21 85
e 21 91
e 21 101
e 21 110
e 21 116
e 21 118
e 21 120
e 21 123
e 21 147
e 21 150
e 21 155
e 21 163
e 21 166
e 21 170
e 21 181
e 21 197
e 21 200
e 22 28
e 22 40
e 22 52
e 22 55
e 22 57
e 22 58
e 22 60
e 22 99
e 22 110
e 22 111
e 22 113
e 22 136
e 22 155
e 22 156
e 22 160
e 22 176
e 23 25
e 23 28
e 23 41
e 23 55
e 23 59
e 23 87
e 23 88
e 23 89
e 23 92
e 23 109
e 23 116
e 23 123
e 23 127
e 23 142
e 23 152
e 23 171
e 23 196
e 24 25
e 24 38
e 24 39
e 24 53
e 24 64
e 24 65
e 24 72
e 24 106
e 24 110
e 24 113
e 24 115
e 24 117
e 24 128
e 24 138
e 24 155
e 24 165
e 24 169
e 24 170
e 24 172
e 24 178
e 24 184
e 24 192
e 24 197
e 25 40
e 25 52
e 25 58
e 25 72
e 25 77
e 25 89
e 25 93
e 25 94
e 25 145
e 25 147
e 25 149
e 25 162
e 25 173
e 25 179
e 25 195
e 25 198
e 26 32
e 26 33
e 26 36
e 26 37
e 26 43
e 26 44
e 26 63
e 26 66
e 26 80
e 26 82
e 26 94
e 26 110
e 26 133
e 26 164
e 26 178
e 26 186
e 26 187
e 27 32
e 27 33
e 27 48
e 27 54
e 27 61
e 27 67
e 27 70
e 27 75
e 27 78
e 27 87
e 27 88
e 27 89
e 27 94
e 27 96
e 27 98
e 27 116
e 27 117
e 27 118
e 27 127
e 27 139
e 27 146
e 27 162
e 27 167
e 27 168
e 27 181
e 27 186
e 27 188
e 27 191
e 28 32
e 28 53
e 28 56
e 28 69
e 28 86
e 28 91
e 28 92
e 28 99
e 28 111
e 28 129
e 28 139
e 28 143
e 28 153
e 28 169
e 28 171
e 28 173
e 28 184
e 28 195
e 29 39
e 29 48
e 29 51
e 29 53
e 29 66
e 29 74
e 29 78
e 29 84
e 29 92
e 29 103
e 29 109
e 29 113
e 29 124
e 29 131
e 29 139
e 29 159
e 29 168
e 29 176
e 29 179
e 29 198
e 29 200
e 30 56
e 30 65
e 30 68
e 30 78
e 30 81
e 30 88
e 30 93
e 30 134
e 30 137
e 30 140
e 30 150
e 30 153
e 30 158
e 30 159
e 30 169
e 30 176
e 30 178
e 30 197
e 30 200
e 31 39
e 31 58
e 31 74
e 31 85
e 31 88
e 31 106
e 31 135
e 31 137
e 31 180
e 31 182
e 31 187
e 31 188
e 32 43
e 32 46
e 32 49
e 32 79
e 32 85
e 32 86
e 32 90
e 32 101
e 32 106
e 32 118
e 32 122
e 32 124
e 32 139
e 32 141
e 32 145
e 32 157
e 32 163
e 32 168
e 32 176
e 32 187
e 32 197
e 32 200
e 33 46
e 33 53
e 33 58
e 33 73
e 33 110
e 33 121
e 33 130
e 33 146
e 33 154
e 33 162
e 33 170
e 33 174
e 33 187
e 33 189
e 33 193
e 33 196
e 34 45
e 34 59
e 34 71
e 34 72
e 34 79
e 34 89
e 34 94
e 34 104
e 34 111
e 34 125
e 34 139
e 34 142
e 34 143
e 34 146
e 34 152
e 34 162
e 34 167
e 34 170
e 34 185
e 34 187
e 34 192
e 34 195
e 35 45
e 35 54
e 35 69
e 35 77
e 35 79
e 35 81
e 35 84
e 35 88
e 35 104
e 35 111
e 35 132
e 35 140
e 35 148
e 35 156
e 35 158
e 35 161
e 35 162
e 35 166
e 35 173
e 35 188
e 35 195
e 35 199
e 36 37
e 36 40
e 36 42
e 36 44
e 36 62
e 36 63
e 36 83
e 36 109
e 36 123
e 36 124
e 36 130
e 36 138
e 36 150
e 36 156
e 36 161
e 36 164
e 36 175
e 36 188
e 36 199
e 37 53
e 37 64
e 37 65
e 37 72
e 37 75
e 37 79
e 37 83
e 37 94
e 37 108
e 37 122
e 37 137
e 37 159
e 37 162
e 37 171
e 37 175
e 37 197
e 38 41
e 38 46
e 38 53
e 38 57
e 38 67
e 38 82
e 38 90
e 38 122
e 38 136
e 38 141
e 38 150
e 38 164
e 38 171
e 38 173
e 38 177
e 38 181
e 38 182
e 38 185
e 38 193
e 38 197
e 39 47
e 39 60
e 39 70
e 39 76
e 39 77
e 39 81
e 39 88
e 39 97
e 39 109
e 39 129
e 39 133
e 39 150
e 39 176
e 39 179
e 39 180
e 39 189
e 39 190
e 40 42
e 40 47
e 40 49
e 40 53
e 40 63
e 40 79
e 40 81
e 40 89
e 40 90
e 40 91
e 40 110
e 40 115
e 40 119
e 40 127
e 40 134
e 40 137
e 40 146
e 40 159
e 40 163
e 40 169
e 40 183
e 40 198
e 40 200
e 41 47
e 41 60
e 41 66
e 41 69
e 41 72
e 41 76
e 41 80
e 41 89
e 41 99
e 41 119
e 41 134
e 41 142
e 41 146
e 41 200
e 42 45
e 42 53
e 42 60
e 42 68
e 42 70
e 42 71
e 42 84
e 42 96
e 42 106
e 42 107
e 42 109
e 42 124
e 42 146
e 42 156
e 42 162
e 42 164
e 42 175
e 42 179
e 42 181
e 42 183
e 42 187
e 43 50
e 43 64
e 43 68
e 43 73
e 43 98
e 43 123
e 43 127
e 43 128
e 43 133
e 43 147
e 43 164
e 43 171
e 43 179
e 43 193
e 44 47
e 44 53
e 44 62
e 44 67
e 44 86
e 44 89
e 44 97
e 44 120
e 44 124
e 44 134
e 44 139
e 44 144
e 44 150
e 44 153
e 44 156
e 44 170
e 44 171
e 44 179
e 44 181
e 44 195
e 45 64
e 45 69
e 45 72
e 45 82
e 45 94
e 45 100
e 45 107
e 45 119
e 45 124
e 45 138
e 45 143
e 45 147
e 45 151
e 45 157
e 45 160
e 45 164
e 45 170
e 45 180
e 45 183
e 45 188
e 45 189
e 46 58
e 46 63
e 46 69
e 46 75
e 46 94
e 46 112
e 46 121
e 46 131
e 46 143
e 46 144
e 46 163
e 46 170
e 46 191
e 46 193
e 46 198
e 46 200
e 47 54
e 47 56
e 47 65
e 47 75
e 47 103
e 47 112
e 47 127
e 47 131
e 47 157
e 47 164
e 47 177
e 47 179
e 47 182
e 48 52
e 48 53
e 48 56
e 48 69
e 48 72
e 48 73
e 48 86
e 48 92
e 48 96
e 48 97
e 48 110
e 48 123
e 48 151
e 48 184
e 48 185
e 49 60
e 49 64
e 49 79
e 49 85
e 49 107
e 49 109
e 49 127
e 49 137
e 49 140
e 49 151
e 49 155
e 49 160
e 49 184
e 49 191
e 49 195
e 49 199
e 50 61
e 50 72
e 50 78
e 50 83
e 50 88
e 50 138
e 50 148
e 50 156
e 50 157
e 50 166
e 50 168
e 50 176
e 50 198
e 51 59
e 51 83
e 51 85
e 51 96
e 51 108
e 51 117
e 51 122
e 51 137
e 51 151
e 51 153
e 51 155
e 51 158
e 51 166
e 51 195
e 51 196
e 51 198
e 52 56
e 52 62
e 52 72
e 52 73
e 52 76
e 52 85
e 52 87
e 52 90
e 52 92
e 52 97
e 52 103
e 52 109
e 52 110
e 52 127
e 52 137
e 52 162
e 52 163
e 52 171
e 52 178
e 52 179
e 52 180
e 52 186
e 52 191
e 53 61
e 53 62
e 53 63
e 53 72
e 53 74
e 53 95
e 53 120
e 53 157
e 53 171
e 53 173
e 53 177
e 54 55
e 54 67
e 54 71
e 54 83
e 54 88
e 54 108
e 54 123
e 54 124
e 54 133
e 54 135
e 54 136
e 54 146
e 54 148
e 54 152
e 54 167
e 54 168
e 54 180
e 54 194
e 55 62
e 55 70
e 55 84
e 55 101
e 55 104
e 55 117
e 55 151
e 55 153
e 55 163
e 55 167
e 55 169
e 55 173
e 55 189
e 55 194
e 55 195
e 55 196
e 55 200
e 56 57
e 56 59
e 56 78
e 56 88
e 56 92
e 56 94
e 56 97
e 56 106
e 56 111
e 56 113
e 56 117
e 56 118
e 56 132
e 56 134
e 56 146
e 56 156
e 56 161
e 56 172
e 57 66
e 57 74
e 57 83
e 57 98
e 57 105
e 57 109
e 57 122
e 57 124
e 57 135
e 57 136
e 57 137
e 57 167
e 57 169
e 57 173
e 57 175
e 57 176
e 57 196
e 58 67
e 58 77
e 58 78
e 58 113
e 58 156
e 58 161
e 58 164
e 58 168
e 58 199
e 59 65
e 59 66
e 59 72
e 59 76
e 59 81
e 59 82
e 59 101
e 59 130
e 59 131
e 59 133
e 59 135
e 59 136
e 59 147
e 59 155
e 59 160
e 59 170
e 59 176
e 59 179
e 59 180
e 60 61
e 60 62
e 60 63
e 60 76
e 60 86
e 60 94
e 60 100
e 60 103
e 60 108
e 60 111
e 60 119
e 60 129
e 60 143
e 60 147
e 60 158
e 60 162
e 60 164
e 60 172
e 60 176
e 60 188
e 61 62
e 61 77
e 61 80
e 61 82
e 61 83
e 61 100
e 61 107
e 61 120
e 61 123
e 61 147
e 61 158
e 61 170
e 61 174
e 61 176
e 61 187
e 61 191
e 62 72
e 62 91
e 62 93
e 62 101
e 62 157
e 62 158
e 62 160
e 62 168
e 62 171
e 62 172
e 62 176
e 62 180
e 62 184
e 63 74
e 63 76
e 63 92
e 63 100
e 63 102
e 63 106
e 63 107
e 63 110
e 63 137
e 63 145
e 63 159
e 63 162
e 63 172
e 63 188
e 63 189
e 63 196
e 64 65
e 64 66
e 64 75
e 64 90
e 64 96
e 64 108
e 64 112
e 64 122
e 64 136
e 64 147
e 64 149
e 64 169
e 64 172
e 64 177
e 64 181
e 64 182
e 64 190
e 64 191
e 64 195
e 65 97
e 65 121
e 65 122
e 65 123
e 65 124
e 65 126
e 65 131
e 65 136
e 65 142
e 65 158
e 65 167
e 65 171
e 65 185
e 65 197
e 66 84
e 66 93
e 66 107
e 66 124
e 66 126
e 66 128
e 66 133
e 66 140
e 66 143
e 66 151
e 66 168
e 66 199
e 67 85
e 67 92
e 67 107
e 67 114
e 67 125
e 67 129
e 67 131
e 67 134
e 67 137
e 67 147
e 67 154
e 67 158
e 67 172
e 67 182
e 67 192
e 67 200
e 68 79
e 68 82
e 68 96
e 68 103
e 68 112
e 68 118
e 68 119
e 68 127
e 68 144
e 68 159
e 68 179
e 68 180
e 68 183
e 68 188
e 68 198
e 69 88
e 69 107
e 69 125
e 69 134
e 69 136
e 69 148
e 69 152
e 69 157
e 69 158
e 69 164
e 69 176
e 69 190
e 69 195
e 69 197
e 70 83
e 70 93
e 70 100
e 70 112
e 70 114
e 70 127
e 70 139
e 70 145
e 70 146
e 70 149
e 70 159
e 70 162
e 70 174
e 70 181
e 70 185
e 71 86
e 71 89
e 71 93
e 71 102
e 71 107
e 71 108
e 71 121
e 71 123
e 71 126
e 71 136
e 71 145
e 71 151
e 71 167
e 71 182
e 71 198
e 72 84
e 72 85
e 72 103
e 72 121
e 72 128
e 72 137
e 72 155
e 72 156
e 72 158
e 72 165
e 72 171
e 73 92
e 73 97
e 73 117
e 73 138
e 73 141
e 73 143
e 73 157
e 73 166
e 73 173
e 73 180
e 73 187
e 74 78
e 74 93
e 74 105
e 74 115
e 74 134
e 74 139
e 74 145
e 74 160
e 74 162
e 74 176
e 74 184
e 74 200
e 75 85
e 75 91
e 75 95
e 75 112
e 75 117
e 75 125
e 75 139
e 75 157
e 75 164
e 75 174
e 75 176
e 75 181
e 75 191
e 75 197
e 76 120
e 76 123
e 76 137
e 76 149
e 76 152
e 76 160
e 76 165
e 76 177
e 76 198
e 76 199
e 77 79
e 77 80
e 77 82
e 77 117
e 77 121
e 77 125
e 77 127
e 77 130
e 77 137
e 77 151
e 77 156
e 77 164
e 77 174
e 77 178
e 77 189
e 77 196
e 77 200
e 78 83
e 78 86
e 78 90
e 78 108
e 78 118
e 78 124
e 78 159
e 78 161
e 78 162
e 78 193
e 78 200
e 79 82
e 79 89
e 79 96
e 79 103
e 79 117
e 79 120
e 79 137
e 79 141
e 79 144
e 79 149
e 79 152
e 79 159
e 79 174
e 79 179
e 79 181
e 79 184
e 80 92
e 80 93
e 80 101
e 80 115
e 80 126
e 80 134
e 80 138
e 80 153
e 80 156
e 80 157
e 80 177
e 80 184
e 80 192
e 80 198
e 81 97
e 81 99
e 81 105
e 81 110
e 81 114
e 81 122
e 81 132
e 81 133
e 81 137
e 81 139
e 81 141
e 81 152
e 81 156
e 81 159
e 81 160
e 81 171
e 81 176
e 82 86
e 82 89
e 82 93
e 82 109
e 82 119
e 82 133
e 82 139
e 82 146
e 82 150
e 82 160
e 82 166
e 82 168
e 82 169
e 82 175
e 82 193
e 83 85
e 83 86
e 83 100
e 83 101
e 83 106
e 83 109
e 83 110
e 83 123
e 83 129
e 83 130
e 83 141
e 83 149
e 83 167
e 83 168
e 83 178
e 83 184
e 83 191
e 83 197
e 83 199
e 84 85
e 84 89
e 84 100
e 84 102
e 84 114
e 84 116
e 84 131
e 84 147
e 84 155
e 84 157
e 84 167
e 84 182
e 84 195
e 85 91
e 85 108
e 85 110
e 85 111
e 85 112
e 85 115
e 85 123
e 85 127
e 85 138
e 85 145
e 85 148
e 85 159
e 85 164
e 85 172
e 86 94
e 86 100
e 86 110
e 86 111
e 86 112
e 86 117
e 86 129
e 86 135
e 86 141
e 86 143
e 86 146
e 86 158
e 86 161
e 86 200
e 87 90
e 87 98
e 87 107
e 87 116
e 87 119
e 87 132
e 87 142
e 87 149
e 87 156
e 87 159
e 87 169
e 87 172
e 87 194
e 87 197
e 87 200
e 88 99
e 88 103
e 88 104
e 88 110
e 88 124
e 88 136
e 88 182
e 88 188
e 89 105
e 89 106
e 89 116
e 89 121
e 89 125
e 89 126
e 89 134
e 89 144
e 89 159
e 89 165
e 89 183
e 89 185
e 89 188
e 89 191
e 89 198
e 89 199
e 90 92
e 90 102
e 90 108
e 90 110
e 90 112
e 90 131
e 90 139
e 90 161
e 90 174
e 90 176
e 90 184
e 90 200
e 91 93
e 91 96
e 91 130
e 91 134
e 91 154
e 91 158
e 91 180
e 91 191
e 92 94
e 92 117
e 92 126
e 92 128
e 92 150
e 92 157
e 92 169
e 92 179
e 92 182
e 92 183
e 92 186
e 92 190
e 92 194
e 92 200
e 93 106
e 93 117
e 93 118
e 93 137
e 93 161
e 93 168
e 93 169
e 93 177
e 93 179
e 93 181
e 93 187
e 93 191
e 93 193
e 93 199
e 94 112
e 94 121
e 94 125
e 94 131
e 94 140
e 94 168
e 94 175
e 94 179
e 94 185
e 95 101
e 95 112
e 95 114
e 95 116
e 95 141
e 95 156
e 95 166
e 95 173
e 95 191
e 95 199
e 96 101
e 96 108
e 96 119
e 96 121
e 96 133
e 96 159
e 96 171
e 96 179
e 96 193
e 96 196
e 97 125
e 97 127
e 97 144
e 97 150
e 97 155
e 97 156
e 97 173
e 97 182
e 97 183
e 97 189
e 97 195
e 98 103
e 98 107
e 98 111
e 98 113
e 98 134
e 98 152
e 98 154
e 98 156
e 98 159
e 98 162
e 98 177
e 98 187
e 98 200
e 99 100
e 99 121
e 99 137
e 99 143
e 99 159
e 99 179
e 99 190
e 100 119
e 100 129
e 100 134
e 100 135
e 100 136
e 100 137
e 100 139
e 100 148
e 100 172
e 101 111
e 101 123
e 101 127
e 101 133
e 101 140
e 101 146
e 101 153
e 101 154
e 101 155
e 101 161
e 101 162
e 101 164
e 101 165
e 101 178
e 101 197
e 102 103
e 102 112
e 102 116
e 102 125
e 102 136
e 102 139
e 102 144
e 102 180
e 103 105
e 103 109
e 103 110
e 103 142
e 103 143
e 103 146
e 103 192
e 104 108
e 104 120
e 104 141
e 104 142
e 104 164
e 104 176
e 104 183
e 104 184
e 105 117
e 105 119
e 105 178
e 105 184
e 105 188
e 105 191
e 106 108
e 106 123
e 106 128
e 106 139
e 106 182
e 107 109
e 107 115
e 107 117
e 107 119
e 107 122
e 107 135
e 107 138
e 107 155
e 107 156
e 107 159
e 107 166
e 107 196
e 107 198
e 108 135
e 108 138
e 108 139
e 108 145
e 108 146
e 108 166
e 108 184
e 109 111
e 109 116
e 109 129
e 109 152
e 109 155
e 109 159
e 109 177
e 109 192
e 109 193
e 109 198
e 109 200
e 110 132
e 110 136
e 110 140
e 110 155
e 110 166
e 110 185
e 110 193
e 111 119
e 111 120
e 111 131
e 111 134
e 111 145
e 111 156
e 111 159
e 111 160
e 111 165
e 111 178
e 111 182
e 111 183
e 111 188
e 111 193
e 111 195
e 112 126
e 112 139
e 112 141
e 112 146
e 112 151
e 112 159
e 112 163
e 112 171
e 112 173
e 112 182
e 113 116
e 113 117
e 113 174
e 113 183
e 113 186
e 114 126
e 114 129
e 114 134
e 114 144
e 114 153
e 114 165
e 114 173
e 114 179
e 114 194
e 114 195
e 114 197
e 115 153
e 115 159
e 115 168
e 115 175
e 115 177
e 115 185
e 116 120
e 116 122
e 116 130
e 116 135
e 116 142
e 116 166
e 116 192
e 116 193
e 116 196
e 117 121
e 117 131
e 117 143
e 117 146
e 117 148
e 117 150
e 117 174
e 117 181
e 117 182
e 117 187
e 117 189
e 118 137
e 118 138
e 118 141
e 118 144
e 118 151
e 118 162
e 118 166
e 118 190
e 118 193
e 118 195
e 118 197
e 118 200
e 119 120
e 119 122
e 119 139
e 119 159
e 119 179
e 119 181
e 119 182
e 119 192
e 119 193
e 120 130
e 120 156
e 120 160
e 120 163
e 120 175
e 120 181
e 120 185
e 120 192
e 120 193
e 120 199
e 121 126
e 121 133
e 121 150
e 121 164
e 121 169
e 121 178
e 121 180
e 121 183
e 121 194
e 122 143
e 122 155
e 122 157
e 122 165
e 122 177
e 122 191
e 122 196
e 123 130
e 123 142
e 123 147
e 123 148
e 123 158
e 123 165
e 123 177
e 123 184
e 123 186
e 123 189
e 123 193
e 123 200
e 124 126
e 124 136
e 124 149
e 124 151
e 124 154
e 124 200
e 125 127
e 125 166
e 125 174
e 125 176
e 125 181
e 125 182
e 126 127
e 126 130
e 126 132
e 126 133
e 126 154
e 126 158
e 126 160
e 126 176
e 126 180
e 126 184
e 126 187
e 126 190
e 127 135
e 127 141
e 127 142
e 127 145
e 127 154
e 127 162
e 127 163
e 127 171
e 127 188
e 127 195
e 127 200
e 128 140
e 128 148
e 128 159
e 128 167
e 128 199
e 129 130
e 129 141
e 129 148
e 129 158
e 129 159
e 129 166
e 129 178
e 129 189
e 129 191
e 129 198
e 130 151
e 130 164
e 131 136
e 131 156
e 131 159
e 131 171
e 131 181
e 131 183
e 131 199
e 132 141
e 132 143
e 132 144
e 132 152
e 132 159
e 132 165
e 132 174
e 132 181
e 133 141
e 133 146
e 133 152
e 133 184
e 133 187
e 133 192
e 134 141
e 134 163
e 134 177
e 134 178
e 134 192
e 134 194
e 135 142
e 135 151
e 135 181
e 135 199
e 136 149
e 136 150
e 136 160
e 136 164
e 136 167
e 136 172
e 136 187
e 136 195
e 136 198
e 137 139
e 137 140
e 137 141
e 137 147
e 137 153
e 137 165
e 137 167
e 137 172
e 137 178
e 137 195
e 138 154
e 138 163
e 138 165
e 138 182
e 138 184
e 138 194
e 138 196
e 139 141
e 139 144
e 139 152
e 139 160
e 139 169
e 139 180
e 139 189
e 139 191
e 139 193
e 139 194
e 139 195
e 139 197
e 140 141
e 140 156
e 140 157
e 140 161
e 140 162
e 140 185
e 140 188
e 140 190
e 140 195
e 141 143
e 141 145
e 141 166
e 141 179
e 141 189
e 142 143
e 142 154
e 142 169
e 142 177
e 142 189
e 142 191
e 142 194
e 143 147
e 143 164
e 143 168
e 143 179
e 143 183
e 143 184
e 143 199
e 143 200
e 144 149
e 144 152
e 145 158
e 145 178
e 145 197
e 146 151
e 146 176
e 146 182
e 146 199
e 147 151
e 147 158
e 147 167
e 147 193
e 147 200
e 148 155
e 148 156
e 148 162
e 148 167
e 148 168
e 148 183
e 148 184
e 149 159
e 149 161
e 149 165
e 149 175
e 149 177
e 149 178
e 149 192
e 149 194
e 149 197
e 149 200
e 150 158
e 150 159
e 150 161
e 150 169
e 150 170
e 150 175
e 150 182
e 150 184
e 150 192
e 151 156
e 151 167
e 151 173
e 151 196
e 152 165
e 152 179
e 152 189
e 152 200
e 153 162
e 153 166
e 153 167
e 153 174
e 153 191
e 153 195
e 153 200
e 154 155
e 154 161
e 154 163
e 154 166
e 154 173
e 154 182
e 154 188
e 154 190
e 155 161
e 155 164
e 155 172
e 155 195
e 155 198
e 156 165
e 156 166
e 156 172
e 156 173
e 156 185
e 156 194
e 157 163
e 157 165
e 157 174
e 157 178
e 157 180
e 157 186
e 158 159
e 158 164
e 158 173
e 158 175
e 158 180
e 158 185
e 158 193
e 158 194
e 159 177
e 159 179
e 159 186
e 159 190
e 159 199
e 160 175
e 160 186
e 160 192
e 160 193
e 160 196
e 161 163
e 161 166
e 161 179
e 161 197
e 162 171
e 162 193
e 162 195
e 163 182
e 163 185
e 164 169
e 164 172
e 164 176
e 164 181
e 164 186
e 164 197
e 165 174
e 165 175
e 165 177
e 165 189
e 165 194
e 166 197
e 167 182
e 167 192
e 167 195
e 167 197
e 168 195
e 168 196
e 168 199
e 169 170
e 169 200
e 170 172
e 170 184
e 170 186
e 170 188
e 170 200
e 171 174
e 171 186
e 172 192
e 172 193
e 173 174
e 174 178
e 174 179
e 175 186
e 175 195
e 175 197
e 176 184
e 176 185
e 176 192
e 176 197
e 177 185
e 177 188
e 178 181
e 179 180
e 180 189
e 180 190
e 180 199
e 181 187
e 183 194
e 183 197
e 183 199
e 184 197
e 185 189
e 186 187
e 186 189
e 186 199
e 187 195
e 187 199
e 189 193
e 189 197
e 191 193
e 194 196
e 195 197
e 196 199
e 196 200
